
Gurobi 11.0.0 (win64) logging started Wed Jul 30 02:28:14 2025

Set parameter LogFile to value "C:\Users\mahu123a\Documents\3l-cvrp-heuristic\data/output/3l-cvrp/all-constraints-heuristic-basic/2025-07-30_02-28-14/BinPackLowerBound.log"

Gurobi 11.0.0 (win64) logging started Wed Jul 30 02:28:14 2025

Set parameter LogFile to value "C:\Users\mahu123a\Documents\3l-cvrp-heuristic\data/output/3l-cvrp/all-constraints-heuristic-basic/2025-07-30_02-28-14/BinPackLowerBound.log"
